p wcnf 147 74 75 
1 -12 -4 0 
1 24 -98 0 
1 -41 51 0 
1 91 119 0 
1 1 -49 0 
1 65 108 0 
1 7 32 0 
1 60 -8 0 
1 -128 -72 0 
1 99 15 0 
1 120 145 0 
1 134 -23 0 
1 -15 63 0 
1 -123 -132 0 
1 -108 121 0 
1 -138 -12 0 
1 -3 60 0 
1 12 -48 0 
1 132 -136 0 
1 -121 -83 0 
1 -21 -117 0 
1 -50 -88 0 
1 116 -35 0 
1 104 74 0 
1 -59 -93 0 
1 -128 -22 0 
1 142 40 0 
1 -60 -80 0 
1 -50 -35 0 
1 -18 111 0 
1 131 83 0 
1 40 140 0 
1 136 8 0 
1 -98 -95 0 
1 65 101 0 
1 92 -120 0 
1 -27 17 0 
1 142 36 0 
1 24 74 0 
1 -30 141 0 
1 94 -55 0 
1 80 -26 0 
1 8 -7 0 
1 82 -129 0 
1 -57 127 0 
1 77 147 0 
1 -37 -101 0 
1 24 135 0 
1 55 91 0 
1 35 72 0 
1 138 81 0 
1 -42 -128 0 
1 96 120 0 
1 8 90 0 
1 -48 110 0 
1 115 -66 0 
1 -22 63 0 
1 -121 -124 0 
1 -15 8 0 
1 -58 76 0 
1 -91 -49 0 
1 -76 83 0 
1 -107 -3 0 
1 -111 7 0 
1 -1 55 0 
1 140 -132 0 
1 53 -111 0 
1 44 136 0 
1 -70 135 0 
1 56 31 0 
1 100 -94 0 
1 -40 119 0 
1 76 -130 0 
1 -106 65 0 
